/* Objective function */
min: c;

c=4.11543892283672*user3_task10_time0+3.73618697588348*user3_task10_time1+3.73618697588348*user4_task1_time1+3.91560039508398*user3_task4_time2+3.91560039508398*user3_task10_time2+3.91560039508398*user4_task1_time2+3.91560039508398*user5_task4_time2+3.91560039508398*user5_task7_time2+2.77995948355383*user2_task7_time3+2.77995948355383*user3_task4_time3+2.77995948355383*user3_task10_time3+2.77995948355383*user4_task1_time3+2.77995948355383*user5_task4_time3+2.77995948355383*user5_task7_time3+3.1337335728366*user1_task7_time4+3.1337335728366*user2_task7_time4+3.1337335728366*user3_task4_time4+3.1337335728366*user3_task10_time4+3.1337335728366*user4_task1_time4+3.1337335728366*user4_task10_time4+3.1337335728366*user5_task1_time4+3.1337335728366*user5_task3_time4+3.1337335728366*user5_task4_time4+3.1337335728366*user5_task7_time4+3.9832313205786*user1_task7_time5+3.9832313205786*user2_task2_time5+3.9832313205786*user2_task3_time5+3.9832313205786*user2_task7_time5+3.9832313205786*user3_task4_time5+3.9832313205786*user3_task10_time5+3.9832313205786*user4_task1_time5+3.9832313205786*user4_task10_time5+3.9832313205786*user5_task1_time5+3.9832313205786*user5_task3_time5+3.9832313205786*user5_task4_time5+3.9832313205786*user5_task7_time5+4.33005468535888*user1_task5_time6+4.33005468535888*user1_task7_time6+4.33005468535888*user2_task2_time6+4.33005468535888*user2_task3_time6+4.33005468535888*user2_task4_time6+4.33005468535888*user2_task7_time6+4.33005468535888*user2_task10_time6+4.33005468535888*user3_task4_time6+4.33005468535888*user3_task10_time6+4.33005468535888*user4_task1_time6+4.33005468535888*user4_task10_time6+4.33005468535888*user5_task1_time6+4.33005468535888*user5_task3_time6+4.33005468535888*user5_task4_time6+4.33005468535888*user5_task6_time6+4.33005468535888*user5_task7_time6+3.69889330587402*user1_task5_time7+3.69889330587402*user1_task7_time7+3.69889330587402*user1_task9_time7+3.69889330587402*user2_task2_time7+3.69889330587402*user2_task3_time7+3.69889330587402*user2_task4_time7+3.69889330587402*user2_task7_time7+3.69889330587402*user2_task10_time7+3.69889330587402*user3_task4_time7+3.69889330587402*user3_task9_time7+3.69889330587402*user3_task10_time7+3.69889330587402*user4_task1_time7+3.69889330587402*user4_task10_time7+3.69889330587402*user5_task1_time7+3.69889330587402*user5_task3_time7+3.69889330587402*user5_task4_time7+3.69889330587402*user5_task6_time7+5.61715057384098*user1_task5_time8+5.61715057384098*user1_task7_time8+5.61715057384098*user1_task9_time8+5.61715057384098*user1_task10_time8+5.61715057384098*user2_task2_time8+5.61715057384098*user2_task3_time8+5.61715057384098*user2_task4_time8+5.61715057384098*user2_task7_time8+5.61715057384098*user2_task10_time8+5.61715057384098*user3_task4_time8+5.61715057384098*user3_task9_time8+5.61715057384098*user4_task1_time8+5.61715057384098*user4_task9_time8+5.61715057384098*user4_task10_time8+5.61715057384098*user5_task1_time8+5.61715057384098*user5_task3_time8+5.61715057384098*user5_task4_time8+5.61715057384098*user5_task6_time8+5.37183747835867*user1_task5_time9+5.37183747835867*user1_task7_time9+5.37183747835867*user1_task9_time9+5.37183747835867*user1_task10_time9+5.37183747835867*user2_task2_time9+5.37183747835867*user2_task3_time9+5.37183747835867*user2_task4_time9+5.37183747835867*user2_task7_time9+5.37183747835867*user2_task10_time9+5.37183747835867*user3_task4_time9+5.37183747835867*user3_task9_time9+5.37183747835867*user4_task9_time9+5.37183747835867*user4_task10_time9+5.37183747835867*user5_task1_time9+5.37183747835867*user5_task3_time9+5.37183747835867*user5_task4_time9+5.37183747835867*user5_task6_time9+5.6818539225781*user1_task5_time10+5.6818539225781*user1_task7_time10+5.6818539225781*user1_task9_time10+5.6818539225781*user1_task10_time10+5.6818539225781*user2_task2_time10+5.6818539225781*user2_task3_time10+5.6818539225781*user2_task4_time10+5.6818539225781*user2_task7_time10+5.6818539225781*user2_task10_time10+5.6818539225781*user3_task4_time10+5.6818539225781*user3_task6_time10+5.6818539225781*user3_task9_time10+5.6818539225781*user4_task9_time10+5.6818539225781*user4_task10_time10+5.6818539225781*user5_task1_time10+5.6818539225781*user5_task3_time10+5.6818539225781*user5_task4_time10+5.6818539225781*user5_task6_time10+3.78844489954937*user1_task5_time11+3.78844489954937*user1_task9_time11+3.78844489954937*user1_task10_time11+3.78844489954937*user2_task1_time11+3.78844489954937*user2_task2_time11+3.78844489954937*user2_task3_time11+3.78844489954937*user2_task4_time11+3.78844489954937*user2_task7_time11+3.78844489954937*user2_task10_time11+3.78844489954937*user3_task3_time11+3.78844489954937*user3_task4_time11+3.78844489954937*user3_task6_time11+3.78844489954937*user3_task9_time11+3.78844489954937*user4_task2_time11+3.78844489954937*user4_task4_time11+3.78844489954937*user4_task9_time11+3.78844489954937*user4_task10_time11+3.78844489954937*user5_task1_time11+3.78844489954937*user5_task3_time11+3.78844489954937*user5_task4_time11+3.78844489954937*user5_task6_time11+6.4957334669762*user1_task4_time12+6.4957334669762*user1_task5_time12+6.4957334669762*user1_task8_time12+6.4957334669762*user1_task9_time12+6.4957334669762*user1_task10_time12+6.4957334669762*user2_task1_time12+6.4957334669762*user2_task3_time12+6.4957334669762*user2_task4_time12+6.4957334669762*user2_task7_time12+6.4957334669762*user3_task3_time12+6.4957334669762*user3_task4_time12+6.4957334669762*user3_task6_time12+6.4957334669762*user3_task9_time12+6.4957334669762*user4_task2_time12+6.4957334669762*user4_task3_time12+6.4957334669762*user4_task4_time12+6.4957334669762*user4_task8_time12+6.4957334669762*user4_task9_time12+6.4957334669762*user4_task10_time12+6.4957334669762*user5_task1_time12+6.4957334669762*user5_task3_time12+6.4957334669762*user5_task4_time12+6.4957334669762*user5_task6_time12+4.60248655012934*user1_task4_time13+4.60248655012934*user1_task8_time13+4.60248655012934*user1_task9_time13+4.60248655012934*user1_task10_time13+4.60248655012934*user2_task1_time13+4.60248655012934*user2_task3_time13+4.60248655012934*user2_task4_time13+4.60248655012934*user2_task7_time13+4.60248655012934*user2_task9_time13+4.60248655012934*user3_task3_time13+4.60248655012934*user3_task4_time13+4.60248655012934*user3_task5_time13+4.60248655012934*user3_task6_time13+4.60248655012934*user3_task9_time13+4.60248655012934*user4_task2_time13+4.60248655012934*user4_task3_time13+4.60248655012934*user4_task4_time13+4.60248655012934*user4_task8_time13+4.60248655012934*user4_task9_time13+4.60248655012934*user5_task1_time13+4.60248655012934*user5_task3_time13+4.60248655012934*user5_task4_time13+4.60248655012934*user5_task6_time13+4.60248655012934*user5_task8_time13+5.77641880552929*user1_task4_time14+5.77641880552929*user1_task8_time14+5.77641880552929*user1_task9_time14+5.77641880552929*user1_task10_time14+5.77641880552929*user2_task1_time14+5.77641880552929*user2_task3_time14+5.77641880552929*user2_task4_time14+5.77641880552929*user2_task7_time14+5.77641880552929*user2_task9_time14+5.77641880552929*user3_task3_time14+5.77641880552929*user3_task4_time14+5.77641880552929*user3_task5_time14+5.77641880552929*user3_task6_time14+5.77641880552929*user3_task9_time14+5.77641880552929*user4_task2_time14+5.77641880552929*user4_task3_time14+5.77641880552929*user4_task4_time14+5.77641880552929*user4_task8_time14+5.77641880552929*user4_task9_time14+5.77641880552929*user5_task1_time14+5.77641880552929*user5_task3_time14+5.77641880552929*user5_task4_time14+5.77641880552929*user5_task6_time14+5.77641880552929*user5_task8_time14+6.25928846041428*user1_task4_time15+6.25928846041428*user1_task8_time15+6.25928846041428*user2_task1_time15+6.25928846041428*user2_task3_time15+6.25928846041428*user2_task4_time15+6.25928846041428*user2_task7_time15+6.25928846041428*user2_task9_time15+6.25928846041428*user3_task2_time15+6.25928846041428*user3_task3_time15+6.25928846041428*user3_task4_time15+6.25928846041428*user3_task5_time15+6.25928846041428*user3_task6_time15+6.25928846041428*user3_task9_time15+6.25928846041428*user4_task2_time15+6.25928846041428*user4_task3_time15+6.25928846041428*user4_task4_time15+6.25928846041428*user4_task8_time15+6.25928846041428*user4_task9_time15+6.25928846041428*user5_task1_time15+6.25928846041428*user5_task3_time15+6.25928846041428*user5_task4_time15+6.25928846041428*user5_task6_time15+6.25928846041428*user5_task8_time15+6.25928846041428*user5_task9_time15+5.9116246685878*user1_task4_time16+5.9116246685878*user1_task8_time16+5.9116246685878*user2_task1_time16+5.9116246685878*user2_task3_time16+5.9116246685878*user2_task4_time16+5.9116246685878*user2_task7_time16+5.9116246685878*user2_task9_time16+5.9116246685878*user3_task2_time16+5.9116246685878*user3_task4_time16+5.9116246685878*user3_task5_time16+5.9116246685878*user3_task6_time16+5.9116246685878*user3_task9_time16+5.9116246685878*user4_task2_time16+5.9116246685878*user4_task3_time16+5.9116246685878*user4_task4_time16+5.9116246685878*user4_task5_time16+5.9116246685878*user4_task8_time16+5.9116246685878*user4_task9_time16+5.9116246685878*user5_task1_time16+5.9116246685878*user5_task3_time16+5.9116246685878*user5_task4_time16+5.9116246685878*user5_task5_time16+5.9116246685878*user5_task6_time16+5.9116246685878*user5_task8_time16+5.9116246685878*user5_task9_time16+6.07955715418735*user1_task4_time17+6.07955715418735*user1_task8_time17+6.07955715418735*user2_task1_time17+6.07955715418735*user2_task3_time17+6.07955715418735*user2_task4_time17+6.07955715418735*user2_task7_time17+6.07955715418735*user2_task9_time17+6.07955715418735*user3_task2_time17+6.07955715418735*user3_task4_time17+6.07955715418735*user3_task6_time17+6.07955715418735*user3_task9_time17+6.07955715418735*user4_task2_time17+6.07955715418735*user4_task3_time17+6.07955715418735*user4_task5_time17+6.07955715418735*user4_task8_time17+6.07955715418735*user4_task9_time17+6.07955715418735*user5_task1_time17+6.07955715418735*user5_task5_time17+6.07955715418735*user5_task6_time17+6.07955715418735*user5_task8_time17+6.07955715418735*user5_task9_time17+6.07955715418735*user5_task10_time17+6.00095784297819*user1_task2_time18+6.00095784297819*user1_task4_time18+6.00095784297819*user1_task6_time18+6.00095784297819*user1_task8_time18+6.00095784297819*user2_task1_time18+6.00095784297819*user2_task3_time18+6.00095784297819*user2_task4_time18+6.00095784297819*user2_task6_time18+6.00095784297819*user2_task7_time18+6.00095784297819*user3_task2_time18+6.00095784297819*user3_task6_time18+6.00095784297819*user3_task9_time18+6.00095784297819*user4_task2_time18+6.00095784297819*user4_task3_time18+6.00095784297819*user4_task5_time18+6.00095784297819*user4_task8_time18+6.00095784297819*user4_task9_time18+6.00095784297819*user5_task1_time18+6.00095784297819*user5_task2_time18+6.00095784297819*user5_task5_time18+6.00095784297819*user5_task6_time18+6.00095784297819*user5_task9_time18+6.00095784297819*user5_task10_time18+5.33718743448045*user1_task2_time19+5.33718743448045*user1_task3_time19+5.33718743448045*user1_task4_time19+5.33718743448045*user1_task6_time19+5.33718743448045*user2_task1_time19+5.33718743448045*user2_task3_time19+5.33718743448045*user2_task4_time19+5.33718743448045*user2_task5_time19+5.33718743448045*user2_task6_time19+5.33718743448045*user2_task7_time19+5.33718743448045*user3_task2_time19+5.33718743448045*user3_task9_time19+5.33718743448045*user4_task2_time19+5.33718743448045*user4_task3_time19+5.33718743448045*user4_task6_time19+5.33718743448045*user4_task8_time19+5.33718743448045*user4_task9_time19+5.33718743448045*user5_task1_time19+5.33718743448045*user5_task2_time19+5.33718743448045*user5_task5_time19+5.33718743448045*user5_task9_time19+5.33718743448045*user5_task10_time19+5.08914263657113*user1_task1_time20+5.08914263657113*user1_task2_time20+5.08914263657113*user1_task3_time20+5.08914263657113*user1_task4_time20+5.08914263657113*user1_task6_time20+5.08914263657113*user2_task1_time20+5.08914263657113*user2_task3_time20+5.08914263657113*user2_task4_time20+5.08914263657113*user2_task6_time20+5.08914263657113*user2_task7_time20+5.08914263657113*user3_task1_time20+5.08914263657113*user3_task2_time20+5.08914263657113*user3_task8_time20+5.08914263657113*user3_task9_time20+5.08914263657113*user4_task2_time20+5.08914263657113*user4_task6_time20+5.08914263657113*user4_task9_time20+5.08914263657113*user5_task1_time20+5.08914263657113*user5_task2_time20+5.08914263657113*user5_task5_time20+5.08914263657113*user5_task9_time20+5.08914263657113*user5_task10_time20+5.21132875282879*user1_task1_time21+5.21132875282879*user1_task2_time21+5.21132875282879*user1_task3_time21+5.21132875282879*user2_task1_time21+5.21132875282879*user2_task3_time21+5.21132875282879*user2_task6_time21+5.21132875282879*user2_task7_time21+5.21132875282879*user2_task8_time21+5.21132875282879*user3_task1_time21+5.21132875282879*user3_task2_time21+5.21132875282879*user3_task7_time21+5.21132875282879*user3_task8_time21+5.21132875282879*user3_task9_time21+5.21132875282879*user4_task6_time21+5.21132875282879*user5_task2_time21+5.21132875282879*user5_task5_time21+5.21132875282879*user5_task9_time21+5.21132875282879*user5_task10_time21+6.04420749805668*user1_task1_time22+6.04420749805668*user1_task2_time22+6.04420749805668*user2_task1_time22+6.04420749805668*user2_task3_time22+6.04420749805668*user2_task7_time22+6.04420749805668*user2_task8_time22+6.04420749805668*user3_task1_time22+6.04420749805668*user3_task7_time22+6.04420749805668*user3_task8_time22+6.04420749805668*user4_task6_time22+6.04420749805668*user4_task7_time22+6.04420749805668*user5_task2_time22+6.04420749805668*user5_task5_time22+6.04420749805668*user5_task9_time22+6.04420749805668*user5_task10_time22+5.82288959604281*user1_task1_time23+5.82288959604281*user1_task2_time23+5.82288959604281*user2_task3_time23+5.82288959604281*user2_task7_time23+5.82288959604281*user2_task8_time23+5.82288959604281*user3_task1_time23+5.82288959604281*user3_task7_time23+5.82288959604281*user3_task8_time23+5.82288959604281*user4_task6_time23+5.82288959604281*user4_task7_time23+5.82288959604281*user5_task5_time23+5.82288959604281*user5_task9_time23+5.82288959604281*user5_task10_time23;
user1_task1_time20+user1_task1_time21+user1_task1_time22+user1_task1_time23=1;
user1_task2_time18+user1_task2_time19+user1_task2_time20+user1_task2_time21+user1_task2_time22+user1_task2_time23=2;
user1_task3_time19+user1_task3_time20+user1_task3_time21=1;
user1_task4_time12+user1_task4_time13+user1_task4_time14+user1_task4_time15+user1_task4_time16+user1_task4_time17+user1_task4_time18+user1_task4_time19+user1_task4_time20=3;
user1_task5_time6+user1_task5_time7+user1_task5_time8+user1_task5_time9+user1_task5_time10+user1_task5_time11+user1_task5_time12=3;
user1_task6_time18+user1_task6_time19+user1_task6_time20=2;
user1_task7_time4+user1_task7_time5+user1_task7_time6+user1_task7_time7+user1_task7_time8+user1_task7_time9+user1_task7_time10=2;
user1_task8_time12+user1_task8_time13+user1_task8_time14+user1_task8_time15+user1_task8_time16+user1_task8_time17+user1_task8_time18=2;
user1_task9_time7+user1_task9_time8+user1_task9_time9+user1_task9_time10+user1_task9_time11+user1_task9_time12+user1_task9_time13+user1_task9_time14=3;
user1_task10_time8+user1_task10_time9+user1_task10_time10+user1_task10_time11+user1_task10_time12+user1_task10_time13+user1_task10_time14=3;
user2_task1_time11+user2_task1_time12+user2_task1_time13+user2_task1_time14+user2_task1_time15+user2_task1_time16+user2_task1_time17+user2_task1_time18+user2_task1_time19+user2_task1_time20+user2_task1_time21+user2_task1_time22=2;
user2_task2_time5+user2_task2_time6+user2_task2_time7+user2_task2_time8+user2_task2_time9+user2_task2_time10+user2_task2_time11=2;
user2_task3_time5+user2_task3_time6+user2_task3_time7+user2_task3_time8+user2_task3_time9+user2_task3_time10+user2_task3_time11+user2_task3_time12+user2_task3_time13+user2_task3_time14+user2_task3_time15+user2_task3_time16+user2_task3_time17+user2_task3_time18+user2_task3_time19+user2_task3_time20+user2_task3_time21+user2_task3_time22+user2_task3_time23=1;
user2_task4_time6+user2_task4_time7+user2_task4_time8+user2_task4_time9+user2_task4_time10+user2_task4_time11+user2_task4_time12+user2_task4_time13+user2_task4_time14+user2_task4_time15+user2_task4_time16+user2_task4_time17+user2_task4_time18+user2_task4_time19+user2_task4_time20=3;
user2_task5_time19=1;
user2_task6_time18+user2_task6_time19+user2_task6_time20+user2_task6_time21=2;
user2_task7_time3+user2_task7_time4+user2_task7_time5+user2_task7_time6+user2_task7_time7+user2_task7_time8+user2_task7_time9+user2_task7_time10+user2_task7_time11+user2_task7_time12+user2_task7_time13+user2_task7_time14+user2_task7_time15+user2_task7_time16+user2_task7_time17+user2_task7_time18+user2_task7_time19+user2_task7_time20+user2_task7_time21+user2_task7_time22+user2_task7_time23=3;
user2_task8_time21+user2_task8_time22+user2_task8_time23=2;
user2_task9_time13+user2_task9_time14+user2_task9_time15+user2_task9_time16+user2_task9_time17=1;
user2_task10_time6+user2_task10_time7+user2_task10_time8+user2_task10_time9+user2_task10_time10+user2_task10_time11=2;
user3_task1_time20+user3_task1_time21+user3_task1_time22+user3_task1_time23=2;
user3_task2_time15+user3_task2_time16+user3_task2_time17+user3_task2_time18+user3_task2_time19+user3_task2_time20+user3_task2_time21=3;
user3_task3_time11+user3_task3_time12+user3_task3_time13+user3_task3_time14+user3_task3_time15=2;
user3_task4_time2+user3_task4_time3+user3_task4_time4+user3_task4_time5+user3_task4_time6+user3_task4_time7+user3_task4_time8+user3_task4_time9+user3_task4_time10+user3_task4_time11+user3_task4_time12+user3_task4_time13+user3_task4_time14+user3_task4_time15+user3_task4_time16+user3_task4_time17=3;
user3_task5_time13+user3_task5_time14+user3_task5_time15+user3_task5_time16=2;
user3_task6_time10+user3_task6_time11+user3_task6_time12+user3_task6_time13+user3_task6_time14+user3_task6_time15+user3_task6_time16+user3_task6_time17+user3_task6_time18=2;
user3_task7_time21+user3_task7_time22+user3_task7_time23=2;
user3_task8_time20+user3_task8_time21+user3_task8_time22+user3_task8_time23=1;
user3_task9_time7+user3_task9_time8+user3_task9_time9+user3_task9_time10+user3_task9_time11+user3_task9_time12+user3_task9_time13+user3_task9_time14+user3_task9_time15+user3_task9_time16+user3_task9_time17+user3_task9_time18+user3_task9_time19+user3_task9_time20+user3_task9_time21=2;
user3_task10_time0+user3_task10_time1+user3_task10_time2+user3_task10_time3+user3_task10_time4+user3_task10_time5+user3_task10_time6+user3_task10_time7=3;
user4_task1_time1+user4_task1_time2+user4_task1_time3+user4_task1_time4+user4_task1_time5+user4_task1_time6+user4_task1_time7+user4_task1_time8=1;
user4_task2_time11+user4_task2_time12+user4_task2_time13+user4_task2_time14+user4_task2_time15+user4_task2_time16+user4_task2_time17+user4_task2_time18+user4_task2_time19+user4_task2_time20=2;
user4_task3_time12+user4_task3_time13+user4_task3_time14+user4_task3_time15+user4_task3_time16+user4_task3_time17+user4_task3_time18+user4_task3_time19=3;
user4_task4_time11+user4_task4_time12+user4_task4_time13+user4_task4_time14+user4_task4_time15+user4_task4_time16=3;
user4_task5_time16+user4_task5_time17+user4_task5_time18=1;
user4_task6_time19+user4_task6_time20+user4_task6_time21+user4_task6_time22+user4_task6_time23=3;
user4_task7_time22+user4_task7_time23=1;
user4_task8_time12+user4_task8_time13+user4_task8_time14+user4_task8_time15+user4_task8_time16+user4_task8_time17+user4_task8_time18+user4_task8_time19=2;
user4_task9_time8+user4_task9_time9+user4_task9_time10+user4_task9_time11+user4_task9_time12+user4_task9_time13+user4_task9_time14+user4_task9_time15+user4_task9_time16+user4_task9_time17+user4_task9_time18+user4_task9_time19+user4_task9_time20=2;
user4_task10_time4+user4_task10_time5+user4_task10_time6+user4_task10_time7+user4_task10_time8+user4_task10_time9+user4_task10_time10+user4_task10_time11+user4_task10_time12=2;
user5_task1_time4+user5_task1_time5+user5_task1_time6+user5_task1_time7+user5_task1_time8+user5_task1_time9+user5_task1_time10+user5_task1_time11+user5_task1_time12+user5_task1_time13+user5_task1_time14+user5_task1_time15+user5_task1_time16+user5_task1_time17+user5_task1_time18+user5_task1_time19+user5_task1_time20=1;
user5_task2_time18+user5_task2_time19+user5_task2_time20+user5_task2_time21+user5_task2_time22=3;
user5_task3_time4+user5_task3_time5+user5_task3_time6+user5_task3_time7+user5_task3_time8+user5_task3_time9+user5_task3_time10+user5_task3_time11+user5_task3_time12+user5_task3_time13+user5_task3_time14+user5_task3_time15+user5_task3_time16=1;
user5_task4_time2+user5_task4_time3+user5_task4_time4+user5_task4_time5+user5_task4_time6+user5_task4_time7+user5_task4_time8+user5_task4_time9+user5_task4_time10+user5_task4_time11+user5_task4_time12+user5_task4_time13+user5_task4_time14+user5_task4_time15+user5_task4_time16=3;
user5_task5_time16+user5_task5_time17+user5_task5_time18+user5_task5_time19+user5_task5_time20+user5_task5_time21+user5_task5_time22+user5_task5_time23=2;
user5_task6_time6+user5_task6_time7+user5_task6_time8+user5_task6_time9+user5_task6_time10+user5_task6_time11+user5_task6_time12+user5_task6_time13+user5_task6_time14+user5_task6_time15+user5_task6_time16+user5_task6_time17+user5_task6_time18=2;
user5_task7_time2+user5_task7_time3+user5_task7_time4+user5_task7_time5+user5_task7_time6=1;
user5_task8_time13+user5_task8_time14+user5_task8_time15+user5_task8_time16+user5_task8_time17=3;
user5_task9_time15+user5_task9_time16+user5_task9_time17+user5_task9_time18+user5_task9_time19+user5_task9_time20+user5_task9_time21+user5_task9_time22+user5_task9_time23=1;
user5_task10_time17+user5_task10_time18+user5_task10_time19+user5_task10_time20+user5_task10_time21+user5_task10_time22+user5_task10_time23=1;
0<=user1_task1_time20<=1;
0<=user1_task1_time21<=1;
0<=user1_task1_time22<=1;
0<=user1_task1_time23<=1;
0<=user1_task2_time18<=1;
0<=user1_task2_time19<=1;
0<=user1_task2_time20<=1;
0<=user1_task2_time21<=1;
0<=user1_task2_time22<=1;
0<=user1_task2_time23<=1;
0<=user1_task3_time19<=1;
0<=user1_task3_time20<=1;
0<=user1_task3_time21<=1;
0<=user1_task4_time12<=1;
0<=user1_task4_time13<=1;
0<=user1_task4_time14<=1;
0<=user1_task4_time15<=1;
0<=user1_task4_time16<=1;
0<=user1_task4_time17<=1;
0<=user1_task4_time18<=1;
0<=user1_task4_time19<=1;
0<=user1_task4_time20<=1;
0<=user1_task5_time6<=1;
0<=user1_task5_time7<=1;
0<=user1_task5_time8<=1;
0<=user1_task5_time9<=1;
0<=user1_task5_time10<=1;
0<=user1_task5_time11<=1;
0<=user1_task5_time12<=1;
0<=user1_task6_time18<=1;
0<=user1_task6_time19<=1;
0<=user1_task6_time20<=1;
0<=user1_task7_time4<=1;
0<=user1_task7_time5<=1;
0<=user1_task7_time6<=1;
0<=user1_task7_time7<=1;
0<=user1_task7_time8<=1;
0<=user1_task7_time9<=1;
0<=user1_task7_time10<=1;
0<=user1_task8_time12<=1;
0<=user1_task8_time13<=1;
0<=user1_task8_time14<=1;
0<=user1_task8_time15<=1;
0<=user1_task8_time16<=1;
0<=user1_task8_time17<=1;
0<=user1_task8_time18<=1;
0<=user1_task9_time7<=1;
0<=user1_task9_time8<=1;
0<=user1_task9_time9<=1;
0<=user1_task9_time10<=1;
0<=user1_task9_time11<=1;
0<=user1_task9_time12<=1;
0<=user1_task9_time13<=1;
0<=user1_task9_time14<=1;
0<=user1_task10_time8<=1;
0<=user1_task10_time9<=1;
0<=user1_task10_time10<=1;
0<=user1_task10_time11<=1;
0<=user1_task10_time12<=1;
0<=user1_task10_time13<=1;
0<=user1_task10_time14<=1;
0<=user2_task1_time11<=1;
0<=user2_task1_time12<=1;
0<=user2_task1_time13<=1;
0<=user2_task1_time14<=1;
0<=user2_task1_time15<=1;
0<=user2_task1_time16<=1;
0<=user2_task1_time17<=1;
0<=user2_task1_time18<=1;
0<=user2_task1_time19<=1;
0<=user2_task1_time20<=1;
0<=user2_task1_time21<=1;
0<=user2_task1_time22<=1;
0<=user2_task2_time5<=1;
0<=user2_task2_time6<=1;
0<=user2_task2_time7<=1;
0<=user2_task2_time8<=1;
0<=user2_task2_time9<=1;
0<=user2_task2_time10<=1;
0<=user2_task2_time11<=1;
0<=user2_task3_time5<=1;
0<=user2_task3_time6<=1;
0<=user2_task3_time7<=1;
0<=user2_task3_time8<=1;
0<=user2_task3_time9<=1;
0<=user2_task3_time10<=1;
0<=user2_task3_time11<=1;
0<=user2_task3_time12<=1;
0<=user2_task3_time13<=1;
0<=user2_task3_time14<=1;
0<=user2_task3_time15<=1;
0<=user2_task3_time16<=1;
0<=user2_task3_time17<=1;
0<=user2_task3_time18<=1;
0<=user2_task3_time19<=1;
0<=user2_task3_time20<=1;
0<=user2_task3_time21<=1;
0<=user2_task3_time22<=1;
0<=user2_task3_time23<=1;
0<=user2_task4_time6<=1;
0<=user2_task4_time7<=1;
0<=user2_task4_time8<=1;
0<=user2_task4_time9<=1;
0<=user2_task4_time10<=1;
0<=user2_task4_time11<=1;
0<=user2_task4_time12<=1;
0<=user2_task4_time13<=1;
0<=user2_task4_time14<=1;
0<=user2_task4_time15<=1;
0<=user2_task4_time16<=1;
0<=user2_task4_time17<=1;
0<=user2_task4_time18<=1;
0<=user2_task4_time19<=1;
0<=user2_task4_time20<=1;
0<=user2_task5_time19<=1;
0<=user2_task6_time18<=1;
0<=user2_task6_time19<=1;
0<=user2_task6_time20<=1;
0<=user2_task6_time21<=1;
0<=user2_task7_time3<=1;
0<=user2_task7_time4<=1;
0<=user2_task7_time5<=1;
0<=user2_task7_time6<=1;
0<=user2_task7_time7<=1;
0<=user2_task7_time8<=1;
0<=user2_task7_time9<=1;
0<=user2_task7_time10<=1;
0<=user2_task7_time11<=1;
0<=user2_task7_time12<=1;
0<=user2_task7_time13<=1;
0<=user2_task7_time14<=1;
0<=user2_task7_time15<=1;
0<=user2_task7_time16<=1;
0<=user2_task7_time17<=1;
0<=user2_task7_time18<=1;
0<=user2_task7_time19<=1;
0<=user2_task7_time20<=1;
0<=user2_task7_time21<=1;
0<=user2_task7_time22<=1;
0<=user2_task7_time23<=1;
0<=user2_task8_time21<=1;
0<=user2_task8_time22<=1;
0<=user2_task8_time23<=1;
0<=user2_task9_time13<=1;
0<=user2_task9_time14<=1;
0<=user2_task9_time15<=1;
0<=user2_task9_time16<=1;
0<=user2_task9_time17<=1;
0<=user2_task10_time6<=1;
0<=user2_task10_time7<=1;
0<=user2_task10_time8<=1;
0<=user2_task10_time9<=1;
0<=user2_task10_time10<=1;
0<=user2_task10_time11<=1;
0<=user3_task1_time20<=1;
0<=user3_task1_time21<=1;
0<=user3_task1_time22<=1;
0<=user3_task1_time23<=1;
0<=user3_task2_time15<=1;
0<=user3_task2_time16<=1;
0<=user3_task2_time17<=1;
0<=user3_task2_time18<=1;
0<=user3_task2_time19<=1;
0<=user3_task2_time20<=1;
0<=user3_task2_time21<=1;
0<=user3_task3_time11<=1;
0<=user3_task3_time12<=1;
0<=user3_task3_time13<=1;
0<=user3_task3_time14<=1;
0<=user3_task3_time15<=1;
0<=user3_task4_time2<=1;
0<=user3_task4_time3<=1;
0<=user3_task4_time4<=1;
0<=user3_task4_time5<=1;
0<=user3_task4_time6<=1;
0<=user3_task4_time7<=1;
0<=user3_task4_time8<=1;
0<=user3_task4_time9<=1;
0<=user3_task4_time10<=1;
0<=user3_task4_time11<=1;
0<=user3_task4_time12<=1;
0<=user3_task4_time13<=1;
0<=user3_task4_time14<=1;
0<=user3_task4_time15<=1;
0<=user3_task4_time16<=1;
0<=user3_task4_time17<=1;
0<=user3_task5_time13<=1;
0<=user3_task5_time14<=1;
0<=user3_task5_time15<=1;
0<=user3_task5_time16<=1;
0<=user3_task6_time10<=1;
0<=user3_task6_time11<=1;
0<=user3_task6_time12<=1;
0<=user3_task6_time13<=1;
0<=user3_task6_time14<=1;
0<=user3_task6_time15<=1;
0<=user3_task6_time16<=1;
0<=user3_task6_time17<=1;
0<=user3_task6_time18<=1;
0<=user3_task7_time21<=1;
0<=user3_task7_time22<=1;
0<=user3_task7_time23<=1;
0<=user3_task8_time20<=1;
0<=user3_task8_time21<=1;
0<=user3_task8_time22<=1;
0<=user3_task8_time23<=1;
0<=user3_task9_time7<=1;
0<=user3_task9_time8<=1;
0<=user3_task9_time9<=1;
0<=user3_task9_time10<=1;
0<=user3_task9_time11<=1;
0<=user3_task9_time12<=1;
0<=user3_task9_time13<=1;
0<=user3_task9_time14<=1;
0<=user3_task9_time15<=1;
0<=user3_task9_time16<=1;
0<=user3_task9_time17<=1;
0<=user3_task9_time18<=1;
0<=user3_task9_time19<=1;
0<=user3_task9_time20<=1;
0<=user3_task9_time21<=1;
0<=user3_task10_time0<=1;
0<=user3_task10_time1<=1;
0<=user3_task10_time2<=1;
0<=user3_task10_time3<=1;
0<=user3_task10_time4<=1;
0<=user3_task10_time5<=1;
0<=user3_task10_time6<=1;
0<=user3_task10_time7<=1;
0<=user4_task1_time1<=1;
0<=user4_task1_time2<=1;
0<=user4_task1_time3<=1;
0<=user4_task1_time4<=1;
0<=user4_task1_time5<=1;
0<=user4_task1_time6<=1;
0<=user4_task1_time7<=1;
0<=user4_task1_time8<=1;
0<=user4_task2_time11<=1;
0<=user4_task2_time12<=1;
0<=user4_task2_time13<=1;
0<=user4_task2_time14<=1;
0<=user4_task2_time15<=1;
0<=user4_task2_time16<=1;
0<=user4_task2_time17<=1;
0<=user4_task2_time18<=1;
0<=user4_task2_time19<=1;
0<=user4_task2_time20<=1;
0<=user4_task3_time12<=1;
0<=user4_task3_time13<=1;
0<=user4_task3_time14<=1;
0<=user4_task3_time15<=1;
0<=user4_task3_time16<=1;
0<=user4_task3_time17<=1;
0<=user4_task3_time18<=1;
0<=user4_task3_time19<=1;
0<=user4_task4_time11<=1;
0<=user4_task4_time12<=1;
0<=user4_task4_time13<=1;
0<=user4_task4_time14<=1;
0<=user4_task4_time15<=1;
0<=user4_task4_time16<=1;
0<=user4_task5_time16<=1;
0<=user4_task5_time17<=1;
0<=user4_task5_time18<=1;
0<=user4_task6_time19<=1;
0<=user4_task6_time20<=1;
0<=user4_task6_time21<=1;
0<=user4_task6_time22<=1;
0<=user4_task6_time23<=1;
0<=user4_task7_time22<=1;
0<=user4_task7_time23<=1;
0<=user4_task8_time12<=1;
0<=user4_task8_time13<=1;
0<=user4_task8_time14<=1;
0<=user4_task8_time15<=1;
0<=user4_task8_time16<=1;
0<=user4_task8_time17<=1;
0<=user4_task8_time18<=1;
0<=user4_task8_time19<=1;
0<=user4_task9_time8<=1;
0<=user4_task9_time9<=1;
0<=user4_task9_time10<=1;
0<=user4_task9_time11<=1;
0<=user4_task9_time12<=1;
0<=user4_task9_time13<=1;
0<=user4_task9_time14<=1;
0<=user4_task9_time15<=1;
0<=user4_task9_time16<=1;
0<=user4_task9_time17<=1;
0<=user4_task9_time18<=1;
0<=user4_task9_time19<=1;
0<=user4_task9_time20<=1;
0<=user4_task10_time4<=1;
0<=user4_task10_time5<=1;
0<=user4_task10_time6<=1;
0<=user4_task10_time7<=1;
0<=user4_task10_time8<=1;
0<=user4_task10_time9<=1;
0<=user4_task10_time10<=1;
0<=user4_task10_time11<=1;
0<=user4_task10_time12<=1;
0<=user5_task1_time4<=1;
0<=user5_task1_time5<=1;
0<=user5_task1_time6<=1;
0<=user5_task1_time7<=1;
0<=user5_task1_time8<=1;
0<=user5_task1_time9<=1;
0<=user5_task1_time10<=1;
0<=user5_task1_time11<=1;
0<=user5_task1_time12<=1;
0<=user5_task1_time13<=1;
0<=user5_task1_time14<=1;
0<=user5_task1_time15<=1;
0<=user5_task1_time16<=1;
0<=user5_task1_time17<=1;
0<=user5_task1_time18<=1;
0<=user5_task1_time19<=1;
0<=user5_task1_time20<=1;
0<=user5_task2_time18<=1;
0<=user5_task2_time19<=1;
0<=user5_task2_time20<=1;
0<=user5_task2_time21<=1;
0<=user5_task2_time22<=1;
0<=user5_task3_time4<=1;
0<=user5_task3_time5<=1;
0<=user5_task3_time6<=1;
0<=user5_task3_time7<=1;
0<=user5_task3_time8<=1;
0<=user5_task3_time9<=1;
0<=user5_task3_time10<=1;
0<=user5_task3_time11<=1;
0<=user5_task3_time12<=1;
0<=user5_task3_time13<=1;
0<=user5_task3_time14<=1;
0<=user5_task3_time15<=1;
0<=user5_task3_time16<=1;
0<=user5_task4_time2<=1;
0<=user5_task4_time3<=1;
0<=user5_task4_time4<=1;
0<=user5_task4_time5<=1;
0<=user5_task4_time6<=1;
0<=user5_task4_time7<=1;
0<=user5_task4_time8<=1;
0<=user5_task4_time9<=1;
0<=user5_task4_time10<=1;
0<=user5_task4_time11<=1;
0<=user5_task4_time12<=1;
0<=user5_task4_time13<=1;
0<=user5_task4_time14<=1;
0<=user5_task4_time15<=1;
0<=user5_task4_time16<=1;
0<=user5_task5_time16<=1;
0<=user5_task5_time17<=1;
0<=user5_task5_time18<=1;
0<=user5_task5_time19<=1;
0<=user5_task5_time20<=1;
0<=user5_task5_time21<=1;
0<=user5_task5_time22<=1;
0<=user5_task5_time23<=1;
0<=user5_task6_time6<=1;
0<=user5_task6_time7<=1;
0<=user5_task6_time8<=1;
0<=user5_task6_time9<=1;
0<=user5_task6_time10<=1;
0<=user5_task6_time11<=1;
0<=user5_task6_time12<=1;
0<=user5_task6_time13<=1;
0<=user5_task6_time14<=1;
0<=user5_task6_time15<=1;
0<=user5_task6_time16<=1;
0<=user5_task6_time17<=1;
0<=user5_task6_time18<=1;
0<=user5_task7_time2<=1;
0<=user5_task7_time3<=1;
0<=user5_task7_time4<=1;
0<=user5_task7_time5<=1;
0<=user5_task7_time6<=1;
0<=user5_task8_time13<=1;
0<=user5_task8_time14<=1;
0<=user5_task8_time15<=1;
0<=user5_task8_time16<=1;
0<=user5_task8_time17<=1;
0<=user5_task9_time15<=1;
0<=user5_task9_time16<=1;
0<=user5_task9_time17<=1;
0<=user5_task9_time18<=1;
0<=user5_task9_time19<=1;
0<=user5_task9_time20<=1;
0<=user5_task9_time21<=1;
0<=user5_task9_time22<=1;
0<=user5_task9_time23<=1;
0<=user5_task10_time17<=1;
0<=user5_task10_time18<=1;
0<=user5_task10_time19<=1;
0<=user5_task10_time20<=1;
0<=user5_task10_time21<=1;
0<=user5_task10_time22<=1;
0<=user5_task10_time23<=1;

/* Variable bounds */